SECTION Graph
Nodes 193
Edges 369
E 1 98 7
E 1 101 1
E 2 103 1
E 3 103 15
E 4 5 1
E 4 121 54
E 5 7 15
E 5 124 54
E 6 7 1
E 6 92 7
E 7 95 7
E 7 141 54
E 8 56 1
E 8 173 16
E 9 57 8
E 9 178 16
E 10 11 1
E 10 129 7
E 10 132 1
E 10 160 24
E 11 13 15
E 11 133 1
E 11 162 24
E 12 13 1
E 12 17 42
E 12 133 15
E 13 173 24
E 14 15 1
E 14 89 7
E 14 93 1
E 14 132 42
E 15 17 15
E 15 97 1
E 15 133 42
E 16 17 1
E 16 97 15
E 16 102 8
E 18 19 1
E 18 73 7
E 18 78 1
E 18 80 3
E 19 21 15
E 19 79 1
E 19 82 3
E 20 21 1
E 20 79 15
E 21 94 3
E 22 23 1
E 22 156 30
E 22 176 1
E 23 177 1
E 24 28 29
E 24 177 15
E 25 26 1
E 25 122 30
E 25 155 1
E 25 176 29
E 26 28 15
E 26 157 1
E 26 177 29
E 27 28 1
E 27 157 15
E 27 165 6
E 29 30 1
E 29 69 7
E 29 70 1
E 29 74 8
E 30 32 15
E 30 71 1
E 30 76 8
E 31 32 1
E 31 71 15
E 31 73 10
E 31 84 7
E 32 85 7
E 32 87 8
E 33 34 1
E 33 62 1
E 33 90 43
E 34 36 15
E 34 63 1
E 34 91 43
E 35 36 1
E 35 63 15
E 35 69 8
E 35 74 7
E 36 75 7
E 36 104 42
E 37 38 1
E 37 58 10
E 38 40 15
E 38 60 10
E 39 40 1
E 39 64 7
E 40 65 7
E 40 68 10
E 41 42 1
E 41 51 7
E 41 169 1
E 42 171 1
E 43 168 19
E 43 171 15
E 44 45 1
E 44 143 7
E 44 145 1
E 44 150 2
E 45 47 15
E 45 148 1
E 45 152 2
E 46 47 1
E 46 148 15
E 46 156 9
E 47 167 2
E 48 49 1
E 48 144 1
E 49 51 15
E 49 147 1
E 50 51 1
E 50 55 19
E 50 147 15
E 50 169 7
E 52 53 1
E 52 126 1
E 52 144 19
E 53 55 15
E 53 127 1
E 53 147 19
E 54 55 1
E 54 127 15
E 54 143 2
E 54 150 7
E 55 151 7
E 56 57 1
E 56 174 16
E 57 175 16
E 58 59 1
E 58 60 1
E 59 61 1
E 59 62 8
E 60 61 1
E 60 68 15
E 61 63 8
E 61 69 15
E 62 63 1
E 64 65 1
E 64 66 1
E 65 67 1
E 65 70 10
E 66 67 1
E 66 72 15
E 67 71 10
E 67 73 15
E 68 69 1
E 68 70 7
E 70 71 1
E 72 73 1
E 72 78 7
E 74 75 1
E 74 76 1
E 75 77 1
E 75 112 42
E 76 77 1
E 76 87 15
E 77 89 15
E 77 114 42
E 78 79 1
E 80 81 1
E 80 82 1
E 81 83 1
E 81 84 6
E 82 83 1
E 82 94 15
E 83 86 6
E 83 98 15
E 84 85 1
E 84 86 1
E 85 88 1
E 85 93 8
E 86 88 1
E 86 100 15
E 87 89 1
E 87 93 7
E 88 97 8
E 88 102 15
E 89 128 42
E 90 91 1
E 90 116 25
E 91 105 15
E 91 118 25
E 92 95 1
E 92 96 1
E 93 97 1
E 94 98 1
E 94 101 7
E 95 99 1
E 95 106 14
E 96 99 1
E 96 109 15
E 98 100 6
E 99 108 14
E 99 111 15
E 100 102 1
E 101 103 1
E 104 105 1
E 104 112 7
E 105 113 7
E 105 130 25
E 106 107 1
E 106 108 1
E 107 110 1
E 107 134 29
E 108 110 1
E 108 120 15
E 109 111 1
E 109 116 7
E 110 122 15
E 110 136 29
E 111 117 7
E 111 120 14
E 112 113 1
E 112 114 1
E 113 115 1
E 113 137 25
E 114 115 1
E 114 128 15
E 115 129 15
E 115 140 25
E 116 117 1
E 116 118 1
E 117 119 1
E 118 119 1
E 118 130 15
E 119 131 15
E 120 122 1
E 120 155 30
E 121 123 1
E 121 124 1
E 122 154 29
E 123 125 1
E 123 126 2
E 124 125 1
E 124 141 15
E 125 127 2
E 125 143 15
E 126 127 1
E 128 129 1
E 128 132 7
E 129 158 25
E 130 131 1
E 130 137 7
E 131 139 7
E 132 133 1
E 134 135 1
E 134 136 1
E 135 138 1
E 135 145 9
E 136 138 1
E 136 154 15
E 137 139 1
E 137 140 1
E 138 148 9
E 138 156 15
E 139 142 1
E 139 146 8
E 140 142 1
E 140 158 15
E 141 143 1
E 141 145 7
E 142 149 8
E 142 159 15
E 144 147 1
E 145 148 1
E 146 149 1
E 146 155 6
E 149 157 6
E 149 165 15
E 150 151 1
E 150 152 1
E 151 153 1
E 151 169 19
E 152 153 1
E 152 167 15
E 153 168 15
E 153 171 19
E 154 156 1
E 154 176 30
E 155 157 1
E 158 159 1
E 158 161 7
E 159 163 7
E 159 165 8
E 160 161 1
E 160 162 1
E 161 163 1
E 161 164 1
E 162 164 1
E 162 173 15
E 163 166 1
E 163 170 8
E 164 166 1
E 164 174 15
E 165 170 7
E 166 172 8
E 166 175 15
E 167 168 1
E 169 171 1
E 170 172 1
E 172 178 15
E 173 174 1
E 174 175 1
E 175 178 8
E 176 177 1
E 1 179 100000
E 2 179 100000
E 3 179 100000
E 4 180 100000
E 5 180 100000
E 6 180 100000
E 7 180 100000
E 8 181 100000
E 9 181 100000
E 10 182 100000
E 11 182 100000
E 12 182 100000
E 13 182 100000
E 14 183 100000
E 15 183 100000
E 16 183 100000
E 17 183 100000
E 18 184 100000
E 19 184 100000
E 20 184 100000
E 21 184 100000
E 22 185 100000
E 23 185 100000
E 24 185 100000
E 25 186 100000
E 26 186 100000
E 27 186 100000
E 28 186 100000
E 29 187 100000
E 30 187 100000
E 31 187 100000
E 32 187 100000
E 33 188 100000
E 34 188 100000
E 35 188 100000
E 36 188 100000
E 37 189 100000
E 38 189 100000
E 39 189 100000
E 40 189 100000
E 41 190 100000
E 42 190 100000
E 43 190 100000
E 44 191 100000
E 45 191 100000
E 46 191 100000
E 47 191 100000
E 48 192 100000
E 49 192 100000
E 50 192 100000
E 51 192 100000
E 52 193 100000
E 53 193 100000
E 54 193 100000
E 55 193 100000
E 56 181 100000
E 57 181 100000
END

SECTION Terminals
Terminals 15
T 179
T 180
T 181
T 182
T 183
T 184
T 185
T 186
T 187
T 188
T 189
T 190
T 191
T 192
T 193
END

EOF
